Route #1: 1 57 34 2 16 32 65 28 36 61 1
Route #2: 1 20 64 26 51 41 56 40 12 4 1
Route #3: 1 39 54 24 37 33 7 68 30 43 25 1
Route #4: 1 5 48 8 44 66 67 1
Route #5: 1 14 47 6 63 15 55 31 22 17 45 1
Route #6: 1 50 23 3 38 42 9 1
Route #7: 1 19 29 59 11 18 21 53 1
Route #8: 1 27 58 52 62 13 46 1
Route #9: 1 60 35 49 10 1
cost 1484.6219755580387
